p cnf 1026
-14 -322
-15 -325
-16 -328
-17 -331
-18 -334
-19 -337
-20 -340
-21 -343
-22 -346
-23 -349
-24 -352
-25 -355
-26 -358
-27 359
-28 360
-29 361
-30 362
-31 363
-32 364
-33 365
-34 366
-35 367
-36 368
-37 -15
-37 -16
15 16 37
-38 -17
-38 -18
17 18 38
-39 -19
-39 -20
19 20 39
-40 -21
-40 -22
21 22 40
-41 -23
-41 -24
23 24 41
-42 -25
-42 -26
25 26 42
-43 -27
-43 -28
27 28 43
-44 -29
-44 -30
29 30 44
-45 -31
-45 -32
31 32 45
-46 -33
-46 -34
33 34 46
-47 -35
-47 -36
35 36 47
-48 37
-48 38
-37 -38 48
-49 39
-49 40
-39 -40 49
-50 41
-50 42
-41 -42 50
-51 43
-51 44
-43 -44 51
-52 45
-52 46
-45 -46 52
-53 48
-53 49
-48 -49 53
-54 50
-54 51
-50 -51 54
-55 47
-55 52
-47 -52 55
-56 53
-56 54
-53 -54 56
-57 55
-57 56
-55 -56 57
-58 -14
-58 15
14 -15 58
-59 14
-59 -15
-14 15 59
-60 -58
-60 -59
58 59 60
-61 14
-61 15
-14 -15 61
-62 -14
-62 -60
14 60 62
-63 14
-63 60
-14 -60 63
-64 -62
-64 -63
62 63 64
-65 14
-65 -60
-14 60 65
-66 -61
-66 -65
61 65 66
-67 -15
-67 16
15 -16 67
-68 15
-68 -16
-15 16 68
-69 -67
-69 -68
67 68 69
-70 15
-70 16
-15 -16 70
-71 66
-71 -69
-66 69 71
-72 -66
-72 69
66 -69 72
-73 -71
-73 -72
71 72 73
-74 -66
-74 -69
66 69 74
-75 -70
-75 -74
70 74 75
-76 -16
-76 17
16 -17 76
-77 16
-77 -17
-16 17 77
-78 -76
-78 -77
76 77 78
-79 16
-79 17
-16 -17 79
-80 75
-80 -78
-75 78 80
-81 -75
-81 78
75 -78 81
-82 -80
-82 -81
80 81 82
-83 -75
-83 -78
75 78 83
-84 -79
-84 -83
79 83 84
-85 -17
-85 18
17 -18 85
-86 17
-86 -18
-17 18 86
-87 -85
-87 -86
85 86 87
-88 17
-88 18
-17 -18 88
-89 84
-89 -87
-84 87 89
-90 -84
-90 87
84 -87 90
-91 -89
-91 -90
89 90 91
-92 -84
-92 -87
84 87 92
-93 -88
-93 -92
88 92 93
-94 -18
-94 19
18 -19 94
-95 18
-95 -19
-18 19 95
-96 -94
-96 -95
94 95 96
-97 18
-97 19
-18 -19 97
-98 93
-98 -96
-93 96 98
-99 -93
-99 96
93 -96 99
-100 -98
-100 -99
98 99 100
-101 -93
-101 -96
93 96 101
-102 -97
-102 -101
97 101 102
-103 -19
-103 20
19 -20 103
-104 19
-104 -20
-19 20 104
-105 -103
-105 -104
103 104 105
-106 19
-106 20
-19 -20 106
-107 102
-107 -105
-102 105 107
-108 -102
-108 105
102 -105 108
-109 -107
-109 -108
107 108 109
-110 -102
-110 -105
102 105 110
-111 -106
-111 -110
106 110 111
-112 -20
-112 21
20 -21 112
-113 20
-113 -21
-20 21 113
-114 -112
-114 -113
112 113 114
-115 20
-115 21
-20 -21 115
-116 111
-116 -114
-111 114 116
-117 -111
-117 114
111 -114 117
-118 -116
-118 -117
116 117 118
-119 -111
-119 -114
111 114 119
-120 -115
-120 -119
115 119 120
-121 -21
-121 22
21 -22 121
-122 21
-122 -22
-21 22 122
-123 -121
-123 -122
121 122 123
-124 21
-124 22
-21 -22 124
-125 120
-125 -123
-120 123 125
-126 -120
-126 123
120 -123 126
-127 -125
-127 -126
125 126 127
-128 -120
-128 -123
120 123 128
-129 -124
-129 -128
124 128 129
-130 -22
-130 23
22 -23 130
-131 22
-131 -23
-22 23 131
-132 -130
-132 -131
130 131 132
-133 22
-133 23
-22 -23 133
-134 129
-134 -132
-129 132 134
-135 -129
-135 132
129 -132 135
-136 -134
-136 -135
134 135 136
-137 -129
-137 -132
129 132 137
-138 -133
-138 -137
133 137 138
-139 -23
-139 24
23 -24 139
-140 23
-140 -24
-23 24 140
-141 -139
-141 -140
139 140 141
-142 23
-142 24
-23 -24 142
-143 138
-143 -141
-138 141 143
-144 -138
-144 141
138 -141 144
-145 -143
-145 -144
143 144 145
-146 -138
-146 -141
138 141 146
-147 -142
-147 -146
142 146 147
-148 -24
-148 25
24 -25 148
-149 24
-149 -25
-24 25 149
-150 -148
-150 -149
148 149 150
-151 24
-151 25
-24 -25 151
-152 147
-152 -150
-147 150 152
-153 -147
-153 150
147 -150 153
-154 -152
-154 -153
152 153 154
-155 -147
-155 -150
147 150 155
-156 -151
-156 -155
151 155 156
-157 -25
-157 26
25 -26 157
-158 25
-158 -26
-25 26 158
-159 -157
-159 -158
157 158 159
-160 25
-160 26
-25 -26 160
-161 156
-161 -159
-156 159 161
-162 -156
-162 159
156 -159 162
-163 -161
-163 -162
161 162 163
-164 -156
-164 -159
156 159 164
-165 -160
-165 -164
160 164 165
-166 -26
-166 27
26 -27 166
-167 26
-167 -27
-26 27 167
-168 -166
-168 -167
166 167 168
-169 26
-169 27
-26 -27 169
-170 165
-170 -168
-165 168 170
-171 -165
-171 168
165 -168 171
-172 -170
-172 -171
170 171 172
-173 -165
-173 -168
165 168 173
-174 -169
-174 -173
169 173 174
-175 -27
-175 28
27 -28 175
-176 27
-176 -28
-27 28 176
-177 -175
-177 -176
175 176 177
-178 27
-178 28
-27 -28 178
-179 174
-179 -177
-174 177 179
-180 -174
-180 177
174 -177 180
-181 -179
-181 -180
179 180 181
-182 -174
-182 -177
174 177 182
-183 -178
-183 -182
178 182 183
-184 -28
-184 29
28 -29 184
-185 28
-185 -29
-28 29 185
-186 -184
-186 -185
184 185 186
-187 28
-187 29
-28 -29 187
-188 183
-188 -186
-183 186 188
-189 -183
-189 186
183 -186 189
-190 -188
-190 -189
188 189 190
-191 -183
-191 -186
183 186 191
-192 -187
-192 -191
187 191 192
-193 -29
-193 30
29 -30 193
-194 29
-194 -30
-29 30 194
-195 -193
-195 -194
193 194 195
-196 29
-196 30
-29 -30 196
-197 192
-197 -195
-192 195 197
-198 -192
-198 195
192 -195 198
-199 -197
-199 -198
197 198 199
-200 -192
-200 -195
192 195 200
-201 -196
-201 -200
196 200 201
-202 -30
-202 31
30 -31 202
-203 30
-203 -31
-30 31 203
-204 -202
-204 -203
202 203 204
-205 30
-205 31
-30 -31 205
-206 201
-206 -204
-201 204 206
-207 -201
-207 204
201 -204 207
-208 -206
-208 -207
206 207 208
-209 -201
-209 -204
201 204 209
-210 -205
-210 -209
205 209 210
-211 -31
-211 32
31 -32 211
-212 31
-212 -32
-31 32 212
-213 -211
-213 -212
211 212 213
-214 31
-214 32
-31 -32 214
-215 210
-215 -213
-210 213 215
-216 -210
-216 213
210 -213 216
-217 -215
-217 -216
215 216 217
-218 -210
-218 -213
210 213 218
-219 -214
-219 -218
214 218 219
-220 -32
-220 33
32 -33 220
-221 32
-221 -33
-32 33 221
-222 -220
-222 -221
220 221 222
-223 32
-223 33
-32 -33 223
-224 219
-224 -222
-219 222 224
-225 -219
-225 222
219 -222 225
-226 -224
-226 -225
224 225 226
-227 -219
-227 -222
219 222 227
-228 -223
-228 -227
223 227 228
-229 -33
-229 34
33 -34 229
-230 33
-230 -34
-33 34 230
-231 -229
-231 -230
229 230 231
-232 33
-232 34
-33 -34 232
-233 228
-233 -231
-228 231 233
-234 -228
-234 231
228 -231 234
-235 -233
-235 -234
233 234 235
-236 -228
-236 -231
228 231 236
-237 -232
-237 -236
232 236 237
-238 -34
-238 35
34 -35 238
-239 34
-239 -35
-34 35 239
-240 -238
-240 -239
238 239 240
-241 34
-241 35
-34 -35 241
-242 237
-242 -240
-237 240 242
-243 -237
-243 240
237 -240 243
-244 -242
-244 -243
242 243 244
-245 -237
-245 -240
237 240 245
-246 -241
-246 -245
241 245 246
-247 -35
-247 36
35 -36 247
-248 35
-248 -36
-35 36 248
-249 -247
-249 -248
247 248 249
-250 35
-250 36
-35 -36 250
-251 246
-251 -249
-246 249 251
-252 -246
-252 249
246 -249 252
-253 -251
-253 -252
251 252 253
-254 -246
-254 -249
246 249 254
-255 -250
-255 -254
250 254 255
-256 14
-256 -64
-14 64 256
-257 -14
-257 16
14 -16 257
-258 -256
-258 -257
256 257 258
-259 14
-259 -73
-14 73 259
-260 -14
-260 17
14 -17 260
-261 -259
-261 -260
259 260 261
-262 14
-262 -82
-14 82 262
-263 -14
-263 18
14 -18 263
-264 -262
-264 -263
262 263 264
-265 14
-265 -91
-14 91 265
-266 -14
-266 19
14 -19 266
-267 -265
-267 -266
265 266 267
-268 14
-268 -100
-14 100 268
-269 -14
-269 20
14 -20 269
-270 -268
-270 -269
268 269 270
-271 14
-271 -109
-14 109 271
-272 -14
-272 21
14 -21 272
-273 -271
-273 -272
271 272 273
-274 14
-274 -118
-14 118 274
-275 -14
-275 22
14 -22 275
-276 -274
-276 -275
274 275 276
-277 14
-277 -127
-14 127 277
-278 -14
-278 23
14 -23 278
-279 -277
-279 -278
277 278 279
-280 14
-280 -136
-14 136 280
-281 -14
-281 24
14 -24 281
-282 -280
-282 -281
280 281 282
-283 14
-283 -145
-14 145 283
-284 -14
-284 25
14 -25 284
-285 -283
-285 -284
283 284 285
-286 14
-286 -154
-14 154 286
-287 -14
-287 26
14 -26 287
-288 -286
-288 -287
286 287 288
-289 14
-289 -163
-14 163 289
-290 -14
-290 27
14 -27 290
-291 -289
-291 -290
289 290 291
-292 14
-292 -172
-14 172 292
-293 -14
-293 28
14 -28 293
-294 -292
-294 -293
292 293 294
-295 14
-295 -181
-14 181 295
-296 -14
-296 29
14 -29 296
-297 -295
-297 -296
295 296 297
-298 14
-298 -190
-14 190 298
-299 -14
-299 30
14 -30 299
-300 -298
-300 -299
298 299 300
-301 14
-301 -199
-14 199 301
-302 -14
-302 31
14 -31 302
-303 -301
-303 -302
301 302 303
-304 14
-304 -208
-14 208 304
-305 -14
-305 32
14 -32 305
-306 -304
-306 -305
304 305 306
-307 14
-307 -217
-14 217 307
-308 -14
-308 33
14 -33 308
-309 -307
-309 -308
307 308 309
-310 14
-310 -226
-14 226 310
-311 -14
-311 34
14 -34 311
-312 -310
-312 -311
310 311 312
-313 14
-313 -235
-14 235 313
-314 -14
-314 35
14 -35 314
-315 -313
-315 -314
313 314 315
-316 14
-316 -244
-14 244 316
-317 -14
-317 36
14 -36 317
-318 -316
-318 -317
316 317 318
-319 14
-319 -253
-14 253 319
-320 1
-320 57
-1 -57 320
-321 -57
-321 58
57 -58 321
-322 -320
-322 -321
320 321 322
-323 2
-323 57
-2 -57 323
-324 -57
-324 -258
57 258 324
-325 -323
-325 -324
323 324 325
-326 3
-326 57
-3 -57 326
-327 -57
-327 -261
57 261 327
-328 -326
-328 -327
326 327 328
-329 4
-329 57
-4 -57 329
-330 -57
-330 -264
57 264 330
-331 -329
-331 -330
329 330 331
-332 5
-332 57
-5 -57 332
-333 -57
-333 -267
57 267 333
-334 -332
-334 -333
332 333 334
-335 6
-335 57
-6 -57 335
-336 -57
-336 -270
57 270 336
-337 -335
-337 -336
335 336 337
-338 7
-338 57
-7 -57 338
-339 -57
-339 -273
57 273 339
-340 -338
-340 -339
338 339 340
-341 8
-341 57
-8 -57 341
-342 -57
-342 -276
57 276 342
-343 -341
-343 -342
341 342 343
-344 9
-344 57
-9 -57 344
-345 -57
-345 -279
57 279 345
-346 -344
-346 -345
344 345 346
-347 10
-347 57
-10 -57 347
-348 -57
-348 -282
57 282 348
-349 -347
-349 -348
347 348 349
-350 11
-350 57
-11 -57 350
-351 -57
-351 -285
57 285 351
-352 -350
-352 -351
350 351 352
-353 12
-353 57
-12 -57 353
-354 -57
-354 -288
57 288 354
-355 -353
-355 -354
353 354 355
-356 13
-356 57
-13 -57 356
-357 -57
-357 -291
57 291 357
-358 -356
-358 -357
356 357 358
-359 -57
-359 -294
57 294 359
-360 -57
-360 -297
57 297 360
-361 -57
-361 -300
57 300 361
-362 -57
-362 -303
57 303 362
-363 -57
-363 -306
57 306 363
-364 -57
-364 -309
57 309 364
-365 -57
-365 -312
57 312 365
-366 -57
-366 -315
57 315 366
-367 -57
-367 -318
57 318 367
-368 -57
-368 319
57 -319 368
-369 -36
-369 255
36 -255 369
-370 14
-370 -369
-14 369 370
370
